WARNING: for repeatability, setting FPU to use double precision
============================[ Problem Statistics ]=============================
|                                                                             |
|  Number of variables:        134680                                         |
|  Number of clauses:          536648                                         |
|  Parse time:                   0.13 s                                       |
|                                                                             |
c ============================[ Search Statistics ]==============================
c | Conflicts |          ORIGINAL         |          LEARNT          | Progress |
c |           |    Vars  Clauses Literals |    Limit  Clauses Lit/Cl |          |
c ===============================================================================
c Switched to VSIDS.
c Switched to LRB.
c Switched to VSIDS.
c Switched to LRB.
c Switched to VSIDS.
c Switched to LRB.
c Switched to VSIDS.
c Switched to LRB.
c Switched to VSIDS.
c Switched to LRB.
c Switched to VSIDS.
c Switched to LRB.
c Switched to VSIDS.
c Switched to LRB.
c Switched to VSIDS.
c Switched to LRB.
c Switched to VSIDS.
c Switched to LRB.
c Switched to VSIDS.
c Switched to LRB.
c Switched to VSIDS.
c Switched to LRB.
c Switched to VSIDS.
c Switched to LRB.
c Switched to VSIDS.
c Switched to LRB.
c Switched to VSIDS.
c Switched to LRB.
c Switched to VSIDS.
c Switched to LRB.
c Switched to VSIDS.
c Switched to LRB.
c Switched to VSIDS.
c Switched to LRB.
c Switched to VSIDS.
c Switched to LRB.
c Switched to VSIDS.
c Switched to LRB.
c ===============================================================================
restarts                  : 31804
conflicts                 : 16735015       (4735 /sec)
decisions                 : 5162425073     (0.00 % random) (1460605 /sec)
propagations              : 11872702450    (3359145 /sec)
conflict literals         : 463199824      (1.76 % deleted)

conflicts w/ DIP found    : 11765540       (70.30 % of conflicts)
conflicts w/ dangerous DIP: 0              (0.00 % of conflicts)
conflicts w/ DIP-learning : 18283          (0.11 % of conflicts)
decisions on ext vars     : 12118317       (0.23 % of decisions)
total ext vars            : 1595        
tried delete ext vars     : 38          
deleted ext vars          : 38          
max ext vars              : 1557        

Memory used               : 814.00 MB
CPU time                  : 3534.44 s
DIP computation time      : 57.1312 s (1.62 % of total time)
ER_sel time               : 14.6802 s
ER_add time               : 0.010614 s
ER_delC time              : 0 s
ER_delV time              : 0.001087 s
ER_sub time               : 17.9772 s
ER_stat time              : 0 s

INDETERMINATE
